RAW/XH/fspd/X-n167-k10.vrp_seed-2.out
13981	20.821	25.119
