RAW/XH/fspd/X-n167-k10.vrp_seed-2.sol
Route #1: 103 152 121 79 3 130 143 71 113 21 149 160 4 131 151 38 55 96 17 159 15 92 30 44 86 5
Route #2: 67 134 52 14 85 156 115 97 148 116 153 8 129 145 163 114 136 2 29 16 109 28 53 112 59 95 158 132 154 139 23 54 42
Route #3: 99 63 87 18 101 27 108 102 100 50 19 142 82 120 39 11 141 70 133 24 31 40 135 150 98 45 81 164 34 65 110 36 105 80 144 124
Route #4: 157 9 128 125 66 43 117 147 20 90 166 94 161 91 49 107 64 104 12 57 77 13 1 122 111 88 37 84 146 51 10 72 32 75 60 76
Route #5: 89 6 7 137 83 69 22 73 25 93 118 47 126 127 155 56 58 61 106 33 74 41 138 78 165 26 35 123 62 162 68 48 119 140 46
Cost 13981.000000